p tw 304 344
1 2
2 113
3 228
4 5
5 6
6 7
6 9
7 8
8 228
9 10
10 11
11 12
12 13
13 15
14 25
15 16
16 17
17 18
18 233
19 20
20 21
21 22
21 38
22 23
23 24
23 38
24 26
25 36
26 27
27 28
28 29
28 30
29 228
30 31
31 32
32 33
33 34
34 35
35 37
36 47
37 233
38 39
39 40
40 41
40 43
41 42
42 228
43 44
44 45
45 46
45 49
46 48
47 58
48 219
49 50
50 51
51 52
51 54
52 53
53 219
54 55
55 56
56 57
56 219
57 59
58 69
59 219
60 61
61 62
62 228
63 64
64 65
65 66
66 233
67 68
68 70
68 219
69 80
70 71
71 72
72 73
72 75
73 74
74 228
75 76
76 77
77 78
78 233
79 81
80 91
81 82
82 83
83 84
84 85
84 219
85 86
86 87
87 233
88 89
89 90
90 92
91 102
92 93
92 103
93 94
94 95
95 96
96 97
97 98
98 99
99 100
100 101
101 103
102 114
103 104
104 105
105 106
106 107
107 108
108 109
109 110
110 111
111 112
112 115
112 118
113 224
114 125
114 136
115 116
116 117
117 118
118 119
119 120
120 121
121 122
121 132
122 123
123 124
124 126
125 136
126 127
127 128
128 129
129 130
130 131
131 132
132 133
133 134
134 135
134 163
135 137
136 147
137 138
137 163
138 139
139 140
140 141
140 163
141 142
142 143
143 144
144 145
145 146
146 148
147 158
148 149
149 150
149 161
150 151
151 152
152 153
153 154
154 155
155 156
156 157
157 159
158 169
159 160
160 144
161 162
162 163
163 164
164 165
165 166
165 185
166 167
167 168
168 170
169 180
170 171
171 172
172 173
172 175
173 174
174 185
175 176
176 177
177 178
177 181
178 179
179 185
180 191
181 182
182 183
183 184
183 185
184 185
185 186
186 187
187 188
188 189
189 190
190 192
191 202
192 193
193 194
194 195
195 196
196 197
197 198
198 199
199 200
200 201
200 120
201 203
201 212
202 213
203 204
204 205
205 206
206 207
207 208
208 209
209 210
210 211
211 212
211 204
212 214
213 225
214 215
215 216
216 217
217 218
218 233
219 220
220 221
221 222
222 223
223 226
224 239
225 230
226 227
227 233
228 229
230 231
231 232
232 233
233 234
234 235
235 236
235 238
236 237
237 228
238 240
239 250
240 241
241 242
242 243
243 244
244 245
245 246
245 257
246 247
247 248
248 249
249 251
250 261
251 252
251 253
252 228
253 254
254 255
255 256
256 228
257 258
258 259
259 260
259 262
260 262
261 272
262 263
263 264
264 265
264 233
265 266
266 267
266 60
267 268
268 269
268 79
269 270
270 271
270 67
271 273
272 283
273 274
273 63
274 275
275 276
275 88
276 277
277 278
277 219
278 279
279 280
280 281
281 282
282 284
283 294
283 14
284 285
284 302
285 286
286 287
286 289
287 288
288 228
289 290
290 291
291 292
292 293
293 295
294 3
295 296
296 297
297 298
298 299
299 300
300 301
301 233
302 303
303 304
304 4
304 19
